94 1999
7 8 10 12 13 14 17 19 20 24 29 30 31 32 33 34 35 40 42 43 44 46 50 52 54 57 58 59 63 64 67 69 75 80 81 82 85 87 90 91 92 93
4 8 18 20 23 24 30 32 34 37 38 39 41 43 45 46 47 48 49 50 53 54 55 59 62 64 65 69 70 73 75 78 83 85
5 6 7 8 11 15 19 20 22 23 24 27 29 31 32 36 37 40 41 44 49 50 52 55 57 58 61 63 64 65 72 73 75 76 81 83 84 92
4 6 7 8 11 12 13 17 20 27 28 32 33 35 37 38 40 42 44 46 53 55 58 60 61 65 69 70 71 72 73 76 78 83 84 86 87 88 91 92 93
1 3 6 7 8 9 12 13 19 25 27 29 30 31 33 34 36 37 38 41 42 44 45 46 47 50 51 52 56 57 59 61 63 64 65 68 69 73 75 78 80 82 87 89 90
2 6 8 11 12 13 15 16 17 18 20 23 24 26 27 31 33 34 35 36 37 38 39 45 48 55 56 58 66 68 69 71 72 73 74 76 78 80 81 82 84 87 90 91 93
2 3 4 5 7 9 10 16 17 18 19 24 25 28 32 33 34 37 38 39 41 44 45 46 49 51 54 56 59 60 63 64 66 70 78 82 85 86 87 88 89
0 2 3 4 6 8 10 11 12 18 19 22 23 24 28 30 35 36 39 40 43 44 47 48 53 57 59 61 64 67 71 72 73 74 76 77 78 79 80 87 89 92 93
0 1 2 3 4 5 7 9 10 11 12 13 14 15 16 17 21 23 25 27 29 30 32 33 37 39 42 44 46 47 48 50 53 54 56 58 59 61 63 64 67 75 76 78 79 80 81 82 90
4 6 8 13 15 17 18 20 22 23 24 25 29 30 31 37 42 45 47 48 50 53 54 55 56 57 59 61 63 65 72 73 77 78 79 81 82 84 88 89 93
0 6 7 8 14 20 25 26 31 32 35 37 39 41 42 44 46 48 49 50 52 54 57 58 63 64 65 67 68 69 70 72 74 75 81 84 89 90 92
2 3 5 7 8 16 17 18 19 23 24 26 29 32 33 39 41 42 43 45 47 48 49 51 52 53 54 55 58 62 63 64 65 66 69 71 75 78 79 82 83 87 89 92
0 3 4 5 7 8 13 15 16 18 20 21 24 27 28 30 31 34 35 36 37 41 42 44 45 46 48 51 52 53 54 55 56 58 59 69 71 75 76 78 79 83 87 88 90 93
0 3 4 5 8 9 12 19 21 23 28 32 33 37 39 43 44 45 48 49 51 52 54 55 56 59 60 61 62 63 66 67 70 74 75 79 81 83 86 88 89 91 92
0 8 10 16 22 23 24 26 27 28 29 30 32 33 37 40 43 46 47 49 51 54 56 58 59 61 64 65 67 71 73 77 78 85 89 93
2 5 8 9 12 16 25 29 30 31 33 34 35 37 38 39 40 41 42 43 44 45 52 56 57 58 59 62 63 64 69 71 73 75 77 79 82 85 87 88 89 91 93
5 6 8 11 12 14 15 18 21 27 28 32 33 36 38 39 40 41 43 45 48 52 57 58 60 63 67 69 71 74 75 77 82 88 90 91 93
0 3 5 6 8 9 11 19 21 26 27 31 32 33 34 39 40 41 43 49 51 52 53 54 55 56 57 59 61 62 64 66 67 68 69 70 71 73 74 76 77 78 81 83 84 85 86 87 88 89 90 93
1 5 6 7 9 11 12 16 19 20 21 22 23 28 29 30 33 38 39 42 45 50 53 54 61 62 65 67 68 71 72 74 76 78 85 87 89 91 93
0 2 4 6 7 11 13 17 18 20 22 23 25 26 27 31 33 36 37 39 40 42 43 44 45 47 48 50 51 53 54 56 57 60 62 63 64 65 69 71 72 76 79 90 91 93
0 1 2 3 5 9 10 12 18 19 22 28 29 31 32 36 38 39 40 41 44 45 46 47 48 49 50 54 55 56 61 62 63 64 68 70 74 84 86 87 90 91 92
8 12 13 16 17 18 22 26 33 34 35 36 37 44 45 49 51 53 54 55 56 57 63 64 73 74 78 79 82 86 89 91 93
2 7 9 14 18 19 20 21 23 24 25 26 27 28 29 34 35 37 38 40 42 43 44 47 51 52 53 54 55 62 63 65 66 67 68 70 71 77 78 79 83 87 90 93
1 2 5 7 8 9 11 13 14 18 19 22 24 25 26 27 31 33 35 37 39 40 43 45 46 49 53 54 55 56 59 60 62 65 69 72 74 75 76 77 80 81 88 89 90 91 92 93
0 1 2 5 6 7 9 11 12 14 22 23 28 29 30 35 36 40 42 43 44 46 47 51 52 53 59 60 64 65 67 69 70 72 73 74 75 77 78 80 81 82 90 91
4 6 8 9 10 15 19 22 23 27 30 34 38 40 45 47 48 49 51 55 56 58 59 60 61 62 63 64 67 70 72 74 76 78 81 88 91 92
5 10 11 14 17 19 21 22 23 27 29 33 34 35 42 43 45 48 49 53 57 60 61 62 63 66 67 68 70 72 73 74 75 76 80 82 85 86 88 90 92
2 3 4 5 8 12 14 16 17 19 22 23 25 26 29 31 32 33 34 36 37 38 39 41 42 45 46 49 50 51 52 56 58 62 64 67 70 72 74 76 77 78 79 82 83 85 88 89
3 6 7 12 13 14 16 18 20 22 24 29 31 32 36 38 39 40 41 45 51 55 59 62 64 65 71 73 74 76 77 78 79 81 82 83 85 86 91 93
0 2 4 8 9 11 14 15 18 20 22 24 26 27 28 33 35 39 40 42 44 46 48 50 52 53 54 55 56 57 60 61 62 63 65 69 75 76 77 79 80 81 82 84 87 89 90 91
0 1 4 7 8 9 12 14 15 18 24 25 32 34 35 39 48 49 52 54 55 56 58 59 61 62 67 69 73 75 77 78 79 81 86 87 88 90 91 92
0 2 4 5 9 10 12 15 17 19 20 23 27 28 33 34 35 36 37 38 43 45 46 47 50 52 54 58 64 66 67 68 71 73 78 81 82 83 86 87 88 89 90 91 93
0 1 2 3 6 8 10 11 13 14 16 17 20 27 28 30 34 35 44 48 50 53 59 66 67 68 69 71 73 74 83 84 86 87 88 89 90 93
0 3 4 5 6 8 11 13 14 15 16 17 18 19 21 23 26 27 29 31 34 35 36 37 38 40 41 42 46 54 55 57 58 60 63 64 65 67 69 70 73 74 76 77 78 82 83 84 85 90
0 1 4 5 6 12 15 17 21 22 25 26 27 30 31 32 33 35 36 37 38 41 42 45 46 49 50 54 57 59 61 62 64 65 69 71 72 74 75 76 79 80 81 91
0 3 5 7 10 12 15 21 22 23 24 26 29 30 31 32 33 34 38 45 46 52 53 58 61 62 64 67 71 72 73 78 81 83 88 92
2 4 5 7 12 16 19 20 21 24 27 28 31 33 34 39 43 44 46 50 53 55 56 57 60 62 66 71 77 79 80 81 83 84 86
1 2 3 4 5 6 8 9 10 12 13 14 15 19 21 22 23 27 31 33 34 39 40 44 45 46 49 56 58 60 63 64 68 69 71 72 73 74 75 76 77 78 79 80 87 89 92
1 3 4 5 6 15 16 18 20 22 25 27 28 31 33 34 35 39 40 43 44 45 47 48 49 51 52 54 57 58 61 62 66 69 72 74 75 76 78 81 85 86 89 93
1 5 6 7 8 10 11 13 15 16 17 18 19 20 23 27 28 29 30 36 37 38 41 42 43 44 45 48 50 51 53 55 57 58 59 60 61 62 65 67 68 73 75 78 80 84 88 89 93
0 2 3 7 14 15 16 17 19 20 22 23 24 25 28 29 33 37 38 41 45 47 50 55 57 58 59 61 64 66 67 68 69 70 71 72 74 75 80 85 86 88 89 91 92
1 2 4 6 10 11 12 15 16 17 20 27 28 33 34 39 40 43 44 45 47 48 49 50 51 53 54 58 60 63 64 71 73 74 75 80 81 83 84 85 87 88 92 93
0 3 4 8 9 10 11 12 15 18 19 22 24 26 27 29 33 34 39 43 44 45 46 52 60 61 66 70 71 72 73 74 75 78 81 82 83 84 86
0 1 7 11 13 14 15 16 17 19 22 23 24 26 31 36 38 39 41 42 44 47 48 49 51 54 55 56 58 59 60 61 67 70 74 75 78 81 82 83 84 85 87 89 92 93
0 2 3 4 6 7 8 10 12 13 15 19 20 21 22 24 29 32 36 37 38 39 41 42 43 47 50 52 54 56 60 61 62 65 67 71 73 76 78 79 80 88 90 91
1 4 5 6 9 11 12 13 15 16 18 19 20 21 23 25 26 27 28 31 34 35 37 38 39 40 41 42 46 50 51 52 56 60 63 66 67 69 70 76 79 80 81 84 85 86 89 93
0 1 3 4 6 8 10 12 14 20 23 24 27 29 31 33 34 35 36 37 42 45 48 53 54 56 57 58 62 69 71 73 76 79 80 83 85 90
1 4 7 8 9 11 14 19 20 22 24 25 31 38 40 41 43 44 48 49 50 51 52 53 55 56 60 61 62 63 65 66 67 69 70 71 73 74 75 79 80 84 85 86 91 92
1 5 7 8 9 10 11 12 13 16 19 20 25 26 29 30 32 38 39 41 43 46 47 51 52 53 55 57 61 62 63 64 65 67 68 71 72 73 74 75 78 79 80 82 86 88 89 90 91
1 2 6 10 11 13 14 17 20 21 23 25 26 27 30 34 37 38 41 43 47 51 53 54 56 58 60 62 63 66 67 73 75 77 78 79 80 81 82 84 86 87 88 89 93
0 1 2 4 8 9 10 18 19 20 27 29 31 32 34 36 39 40 41 44 45 47 51 59 60 61 65 68 69 70 75 76 79 83 84 86 87 88 90 91 92 93
4 6 11 12 13 14 17 19 21 22 24 25 27 28 38 39 41 43 45 47 48 49 50 54 60 64 65 67 68 70 71 72 78 81 82 83 84 85 87 88 91 92
0 2 4 10 11 12 13 15 16 17 22 24 27 29 30 31 35 38 42 44 45 47 48 58 59 60 61 64 65 68 70 73 77 78 80 82 84 86 88 93
1 3 7 8 9 11 12 17 18 19 21 22 23 24 26 29 32 35 36 39 41 46 47 48 49 56 57 59 60 61 64 66 67 68 69 70 71 73 74 76 82 83 85 86 90 91 92
0 1 6 8 9 10 11 12 13 14 17 18 19 20 21 22 23 29 30 31 33 34 38 41 43 44 46 49 51 61 63 65 67 70 73 76 77 79 80 83 85 92
1 2 3 5 9 11 12 13 17 20 21 22 23 25 28 29 30 33 36 39 40 43 47 48 59 60 64 65 70 71 75 79 83 85 86 87 88 93
4 5 6 8 9 12 13 14 15 17 19 20 21 23 25 27 29 30 36 37 43 44 45 46 47 49 53 57 59 60 62 63 72 73 76 79 82 86 90 93
0 2 4 7 9 10 15 16 17 19 21 26 29 33 34 36 38 39 40 46 48 53 56 58 60 63 67 69 70 71 73 75 77 81 82 84 86 87 90 92 93
0 2 3 5 8 10 11 12 14 15 16 25 27 30 31 33 35 37 38 39 40 41 43 46 49 52 57 59 63 64 67 70 71 75 76 77 80 81 82 85 86 88 89 91
0 1 4 6 7 8 9 12 13 14 15 17 23 24 25 28 30 32 34 39 40 43 50 52 53 55 56 58 61 65 66 73 74 75 76 77 78 79 80 81 82 88 89 90 92
3 6 13 16 19 23 24 25 26 29 33 36 37 39 41 42 43 44 45 47 49 50 51 52 53 55 56 57 62 64 67 68 70 71 72 73 77 78 79 81 82 86 88 89 90 93
2 3 4 7 8 9 13 14 17 18 20 25 26 29 30 34 35 38 39 40 42 43 44 47 48 50 52 53 54 59 63 64 66 67 74 77 83 84 88 89 91
1 11 13 15 17 18 19 20 22 23 25 26 27 28 29 30 34 35 36 38 39 44 46 47 48 49 56 60 66 69 72 73 74 75 77 78 82 83 85 86 87 92 93
0 2 4 6 8 9 10 11 13 15 16 19 20 21 22 25 26 29 33 37 41 45 47 48 49 54 56 57 58 61 66 69 71 72 74 75 76 77 78 79 82 85 88 93
0 1 2 4 6 7 8 10 11 14 15 17 19 20 21 24 25 27 28 31 33 34 35 37 40 41 48 51 52 53 55 58 60 61 66 67 69 79 82 83 85 86 87 89 90 91
1 2 3 4 9 10 11 14 18 19 22 23 24 28 29 33 34 39 44 47 48 50 51 52 54 55 59 69 70 72 74 75 78 80 81 82 85 86 87 93
5 6 11 13 17 22 26 31 32 36 38 40 42 45 47 49 53 59 61 62 63 64 68 69 71 72 74 78 79 81 83 84 89
0 7 8 10 13 14 16 17 18 22 24 25 26 27 30 31 32 33 35 39 40 43 44 45 47 48 49 51 53 54 57 58 60 61 64 68 69 70 71 74 81 82 83 85 88 90 93
4 5 10 17 18 20 22 26 31 32 37 39 40 48 50 51 52 53 60 66 67 74 75 76 78 80 81 82 83 85 87 88 90 91
0 1 3 4 5 10 11 12 15 16 17 19 23 24 29 30 32 33 34 37 38 40 45 46 47 50 53 57 62 63 64 65 66 67 70 71 72 77 80 81 83 84 86 88 89 90 91 93
1 3 6 10 13 17 20 22 24 25 26 27 33 40 42 43 45 47 50 51 52 53 54 55 57 58 60 65 67 69 71 72 73 76 77 78 79 81 82 86 87 92
3 5 7 11 12 14 15 16 17 18 19 22 28 31 32 34 35 36 37 40 41 42 44 46 47 48 51 53 55 57 58 60 63 66 67 69 70 74 77 79 80 81 90 92
2 3 5 7 9 10 18 19 23 24 25 26 27 34 35 37 38 40 42 48 51 56 60 62 63 65 66 69 70 73 75 76 78 81 84 86 87 88 89 91
1 2 3 4 5 7 9 14 15 17 21 24 26 28 30 31 32 33 35 37 39 41 42 44 46 47 48 49 52 53 54 56 57 59 60 62 70 72 76 77 80 81 86 87 92
5 7 10 13 16 17 18 20 21 23 24 25 26 27 28 32 33 34 37 38 40 41 42 43 47 48 53 59 61 62 63 65 66 67 68 71 75 76 78 83 86 87 89 90 92 93
0 1 2 4 8 10 11 12 13 15 16 23 24 26 29 30 34 37 38 39 40 41 42 43 47 48 49 50 55 57 58 59 62 63 65 68 72 74 76 77 78 79 81 82 85 86 88 91 92
2 3 5 7 8 12 17 18 19 23 25 26 27 28 29 33 34 37 38 44 45 46 50 53 54 56 58 59 63 68 70 72 73 74 75 79 80 81 84 86 88 89 90 91
7 9 14 15 16 17 22 23 24 27 28 29 30 33 36 37 49 52 54 57 58 59 60 61 62 63 69 70 71 73 75 79 84 85 86 87 90 91 92 93
1 3 4 5 6 7 8 9 11 12 14 17 18 21 22 24 25 27 28 30 31 33 35 37 38 39 42 43 44 48 49 51 52 59 60 62 63 65 66 68 70 72 74 75 79 80 81 82 83 84 91 92
7 8 9 11 12 13 15 19 21 22 27 28 29 30 34 36 37 44 45 46 47 48 49 50 54 55 56 59 60 63 64 66 70 71 75 76 77 78 81 83 85 87 88 89 92 93
0 4 5 7 8 23 24 26 29 34 36 37 39 40 41 44 45 46 47 48 49 52 54 58 59 65 68 69 71 73 76 78 81 83 85 86 88 93
0 2 5 8 9 10 13 17 23 24 25 28 29 30 31 34 35 36 38 41 42 43 45 49 51 57 58 59 60 65 66 67 68 69 70 71 72 73 75 76 78 79 80 83 85 87 92
0 4 5 6 8 9 11 15 16 21 24 26 27 28 29 31 33 42 43 48 49 51 52 53 56 57 58 59 60 62 63 64 65 67 68 70 75 78 85 86 88 89 92
1 2 3 11 12 13 17 22 27 28 31 32 33 35 36 41 42 43 46 50 51 53 54 55 61 62 64 66 67 68 69 74 78 79 80 81 86 87 88 90 92
2 3 5 9 10 17 20 29 32 33 36 39 41 42 43 45 47 49 50 51 52 57 61 66 69 72 76 77 78 88 92
0 1 6 14 15 17 18 26 27 28 33 38 40 41 43 45 46 47 51 53 54 55 58 62 63 64 65 67 68 75 77 79 80 81 82 86 89 93
3 6 13 17 20 21 26 28 30 31 32 36 38 40 42 45 47 48 49 50 52 53 55 56 57 58 60 62 64 65 69 70 72 73 74 75 76 77 80 82 83 85 87 90 92
0 3 4 5 6 7 11 12 15 17 18 20 22 29 30 31 32 37 41 43 49 50 51 55 57 62 64 65 68 70 72 73 74 77 79 81 83 86 93
3 6 9 12 13 15 16 17 23 25 26 27 30 31 32 35 39 40 41 44 48 49 50 51 52 55 58 59 60 61 63 67 68 69 72 75 76 79 80 82 83 84 90 91 92
4 6 7 9 10 11 13 14 15 17 18 21 23 27 29 31 32 37 38 39 40 43 45 48 49 58 59 60 61 64 66 69 72 74 76 79 82 85 91
0 4 5 8 10 12 16 17 19 20 22 23 24 26 29 30 31 32 33 44 46 48 50 53 56 57 59 60 64 67 68 69 71 74 76 77 83 86 88
0 3 5 13 15 16 18 19 20 21 23 24 25 28 29 30 31 34 40 44 47 48 50 51 53 58 61 64 68 69 72 75 76 77 78 88 89 92
0 2 3 7 10 11 13 20 23 25 26 30 35 37 40 41 43 47 50 51 53 54 57 59 62 70 71 73 74 75 77 78 79 81 82 83 84 86 88 91
0 3 5 7 9 12 14 15 16 17 18 19 21 22 23 28 31 32 38 39 41 43 45 49 50 52 55 56 57 60 62 63 65 67 69 74 77 79 80 85 87
